c instance by G2
c solution = 11000
c Known solution cost is 247 
p cnf 5 30
w 91 12 43 85 16
3 4 2 0
-1 -2 -5 0
4 5 -3 0
2 -3 -4 0
5 -3 -1 0
-5 -2 -3 0
-2 1 -5 0
-1 -4 -3 0
1 4 -2 0
-2 -3 4 0
-5 -3 -1 0
2 -1 4 0
2 3 1 0
-3 -5 2 0
-2 -4 1 0
-5 1 2 0
3 2 4 0
-3 -1 -2 0
2 5 -3 0
-2 4 1 0
3 2 4 0
-3 5 2 0
-2 3 -4 0
-3 -2 -4 0
-3 5 2 0
3 -4 -2 0
-1 5 2 0
-3 -2 -5 0
2 -5 4 0
1 5 -2 0
